************************************************************************
file with basedata            : md376_.bas
initial value random generator: 10728
************************************************************************
projects                      :  1
jobs (incl. supersource/sink ):  22
horizon                       :  163
RESOURCES
  - renewable                 :  2   R
  - nonrenewable              :  2   N
  - doubly constrained        :  0   D
************************************************************************
PROJECT INFORMATION:
pronr.  #jobs rel.date duedate tardcost  MPM-Time
    1     20      0       24        2       24
************************************************************************
PRECEDENCE RELATIONS:
jobnr.    #modes  #successors   successors
   1        1          3           2   3   4
   2        3          2           5   9
   3        3          3           8  20  21
   4        3          3           6  15  17
   5        3          3           7  10  15
   6        3          3           9  11  19
   7        3          3           8  11  16
   8        3          1          12
   9        3          2          10  18
  10        3          2          13  14
  11        3          2          13  14
  12        3          1          17
  13        3          1          20
  14        3          2          20  21
  15        3          2          18  19
  16        3          2          17  18
  17        3          1          19
  18        3          1          21
  19        3          1          22
  20        3          1          22
  21        3          1          22
  22        1          0        
************************************************************************
REQUESTS/DURATIONS:
jobnr. mode duration  R 1  R 2  N 1  N 2
------------------------------------------------------------------------
  1      1     0       0    0    0    0
  2      1     4       7    3    7    7
         2     5       5    2    7    5
         3     9       4    2    6    3
  3      1     3       9    7    6    7
         2     6       6    5    3    6
         3     9       5    3    3    6
  4      1     1       6    7    5    5
         2     6       5    7    4    5
         3     7       2    4    4    5
  5      1     1       6    7    7   10
         2     7       4    6    6    9
         3     8       3    5    4    7
  6      1     7       8    7    7   10
         2     8       7    7    7    8
         3     9       4    6    7    8
  7      1     3       8    6    6    1
         2     4       8    4    6    1
         3     9       8    3    6    1
  8      1     2       9    7    6    6
         2     6       9    5    5    5
         3     9       8    3    3    4
  9      1     3      10    4    5    6
         2     8       9    4    3    5
         3    10       7    4    1    3
 10      1     3      10    8    9    6
         2     4       5    7    9    5
         3     8       1    6    8    5
 11      1     1       4    6    9    4
         2     5       3    6    9    4
         3     8       2    3    8    4
 12      1     2       5    5    8    3
         2     7       5    3    8    3
         3     9       4    2    8    2
 13      1     2       3    8   10    5
         2     3       2    8    9    4
         3     9       2    7    8    2
 14      1     1      10    3    9    5
         2     3       6    2    7    3
         3     4       5    2    3    1
 15      1     2       9   10    2    9
         2     6       8    7    1    7
         3     8       7    5    1    5
 16      1     4       6    7   10   10
         2     6       5    5    5    7
         3     7       4    2    4    6
 17      1     2       9    6    4    2
         2     4       9    6    3    2
         3     7       9    6    2    2
 18      1     1       9    8   10    7
         2     5       7    5   10    6
         3     6       7    5    9    4
 19      1     4       6    3    6    7
         2     6       3    3    5    7
         3     9       3    2    5    6
 20      1     8       4    8    3    5
         2     9       4    5    3    5
         3    10       1    2    2    5
 21      1     6       6   10    8    8
         2     8       6    8    2    6
         3     8       6    7    3    4
 22      1     0       0    0    0    0
************************************************************************
RESOURCEAVAILABILITIES:
  R 1  R 2  N 1  N 2
   29   24  126  113
************************************************************************
MAXIMAL LAGS:
from  to  type  delay
    1   22   ES      0
    1    2   ES      0
    2   22   ES      0
    1    3   ES      0
    3   22   ES      0
    1    4   ES      0
    4   22   ES      0
    1    5   ES      0
    5   22   ES      0
    1    6   ES      0
    6   22   ES      0
    1    7   ES      0
    7   22   ES      0
    1    8   ES      0
    8   22   ES      0
    1    9   ES      0
    9   22   ES      0
    1   10   ES      0
   10   22   ES      0
    1   11   ES      0
   11   22   ES      0
    1   12   ES      0
   12   22   ES      0
    1   13   ES      0
   13   22   ES      0
    1   14   ES      0
   14   22   ES      0
    1   15   ES      0
   15   22   ES      0
    1   16   ES      0
   16   22   ES      0
    1   17   ES      0
   17   22   ES      0
    1   18   ES      0
   18   22   ES      0
    1   19   ES      0
   19   22   ES      0
    1   20   ES      0
   20   22   ES      0
    1   21   ES      0
   21   22   ES      0
    1   22   ES      0
    2    5   SS      5
    2    5   SE      1
    5    2   SE      0
    2    5   ES      0
    2    5   EE      1
    2    9   SS      4
    2    9   SE     -3
    2    9   ES      2
    2    9   EE    -11
    3    8   SS      3
    3    8   SE      8
    3    8   ES     -8
    3    8   EE      0
    3   20   SS    -11
    3   20   SE     11
    3   20   ES     -7
    3   20   EE      2
    3   21   SS     -2
    3   21   SE      3
    3   21   ES     11
    3   21   EE      4
    4    6   SS      7
    4    6   SE      1
    4    6   ES      1
    4    6   EE     -6
    4   15   SS      1
    4   15   SE      4
    4   15   ES    -12
    4   15   EE     -1
    4   17   SS     -6
    4   17   SE      3
    4   17   ES     -6
    4   17   EE      4
    5    7   SS    -11
    5    7   SE      5
    5    7   ES     12
    5    7   EE      4
    5   10   SS     -8
    5   10   SE     -6
    5   10   ES     -6
    5   10   EE    -11
    5   15   SS      6
    5   15   SE      2
    5   15   ES    -12
    5   15   EE    -10
    6    9   SS      7
    6    9   SE      6
    6    9   ES      5
    6    9   EE     -7
    6   11   SS     -3
    6   11   SE      2
    6   11   ES      3
    6   11   EE    -11
    6   19   SS      8
    6   19   SE      9
    6   19   ES      2
    6   19   EE     -1
    7    8   SS     -9
    7    8   SE      4
    7    8   ES     10
    7    8   EE      0
    7   11   SS     -8
    7   11   SE     -9
    7   11   ES    -12
    7   11   EE      6
    7   16   SS      4
    7   16   SE      9
    7   16   ES      8
    7   16   EE      8
    8   12   SS      1
    8   12   SE     -6
    8   12   ES      0
    8   12   EE      2
    9   10   SS      4
    9   10   SE      9
    9   10   ES     -7
    9   10   EE      4
    9   18   SS      8
    9   18   SE      8
    9   18   ES    -10
    9   18   EE      1
   10   13   SS      5
   10   13   SE      6
   10   13   ES      0
   10   13   EE    -12
   10   14   SS    -12
   10   14   SE      0
   10   14   ES     12
   10   14   EE      0
   11   13   SS      4
   11   13   SE      9
   11   13   ES      4
   11   13   EE    -10
   11   14   SS     -7
   11   14   SE      3
   11   14   ES      6
   11   14   EE    -11
   12   17   SS     -3
   12   17   SE     11
   12   17   ES     -7
   12   17   EE     -1
   13   20   SS     -7
   13   20   SE      5
   13   20   ES      9
   13   20   EE     -4
   14   20   SS      0
   14   20   SE     -2
   14   20   ES      4
   14   20   EE    -12
   14   21   SS      1
   14   21   SE      5
   14   21   ES     12
   14   21   EE    -10
   15   18   SS      9
   15   18   SE      2
   15   18   ES      7
   15   18   EE     -8
   15   19   SS     -7
   15   19   SE      8
   15   19   ES     -3
   15   19   EE     -9
   16   17   SS      9
   16   17   SE      7
   16   17   ES      7
   16   17   EE      2
   16   18   SS      7
   16   18   SE      2
   16   18   ES    -12
   16   18   EE     -6
   17   19   SS     -9
   17   19   SE    -11
   17   19   ES      5
   17   19   EE    -11
   18   21   SS      4
   18   21   SE     -6
   18   21   ES     -4
   18   21   EE      5
************************************************************************
